c 104_3_checker_5cl.cnf
c
c field = 104
c formula set type = 3_checker_5cl
c
p cnf 5 12
200 
202 
204 
-209 
-198 
201 
203 
205 
-208 
-199 
202 
204 
208 
-201 
-198 
203 
205 
209 
-200 
-199 
110 
142 
174 
-239 
-78 
111 
143 
175 
-238 
-79 
142 
174 
238 
-111 
-78 
143 
175 
239 
-110 
-79 
178 
234 
262 
-291 
-318 
179 
235 
263 
-290 
-319 
234 
262 
290 
-179 
-318 
235 
263 
291 
-178 
-319 
